     Program PWSCF v.7.3.1 starts on 23Jul2025 at 22:31:37

     Waiting for input...
     Reading input from standard input

     Current dimensions of program PWSCF are:
     Max number of different atomic species (ntypx) = 10
     Max number of k-points (npk) =  40000
     Max angular momentum in pseudopotentials (lmaxx) =  4
     file Al.pbe-n-kjpaw_psl.1.0.0.UPF: wavefunction(s)  3S 3P renormalized
     file O.pbe-n-kjpaw_psl.1.0.0.UPF: wavefunction(s)  2S 2P renormalized

     IMPORTANT: XC functional enforced from input :
     Exchange-correlation= PBE
                           (   1   4   3   4   0   0   0)
     Any further DFT definition will be discarded
     Please, verify this is what you really want

     Message from routine setup:
     using ibrav=0 with symmetry is DISCOURAGED, use correct ibrav instead

     Subspace diagonalization in iterative solution of the eigenvalue problem:
     a serial algorithm will be used

     Using Slab Decomposition

     bravais-lattice index     =            0
     lattice parameter (alat)  =     177.6177  a.u.
     unit-cell volume          =    8960.8096 (a.u.)^3
     number of atoms/cell      =           16
     number of atomic types    =            2
     number of electrons       =        54.00
     number of Kohn-Sham states=           32
     kinetic-energy cutoff     =      46.6495  Ry
     charge density cutoff     =     323.0247  Ry
     scf convergence threshold =      1.0E-06
     mixing beta               =       0.7000
     number of iterations used =            8  plain     mixing
     Exchange-correlation= PBE
                           (   1   4   3   4   0   0   0)

     celldm(1)= 177.617744  celldm(2)=   0.000000  celldm(3)=   0.000000
     celldm(4)=   0.000000  celldm(5)=   0.000000  celldm(6)=   0.000000

     crystal axes: (cart. coord. in units of alat)
               a(1) = (   1.000000   0.000000   0.000000 )
               a(2) = (   0.000000   0.030385   0.000000 )
               a(3) = (   0.000000   0.000000   0.052629 )

     reciprocal axes: (cart. coord. in units 2 pi/alat)
               b(1) = (  1.000000  0.000000  0.000000 )
               b(2) = (  0.000000 32.910631  0.000000 )
               b(3) = (  0.000000  0.000000 19.000962 )

     PseudoPot. # 1 for Al read from file:
     ./pseudo/Al.pbe-n-kjpaw_psl.1.0.0.UPF
     MD5 check sum: 502b6b27b9c6270cab5dd1084b96fa6d
     Pseudo is Projector augmented-wave + core cor, Zval =  3.0
     Generated using &quot;atomic&quot; code by A. Dal Corso  v.6.3
     Shape of augmentation charge: PSQ
     Using radial grid of 1135 points,  6 beta functions with:
                l(1) =   0
                l(2) =   0
                l(3) =   1
                l(4) =   1
                l(5) =   2
                l(6) =   2
     Q(r) pseudized with 0 coefficients

     PseudoPot. # 2 for O  read from file:
     ./pseudo/O.pbe-n-kjpaw_psl.1.0.0.UPF
     MD5 check sum: e99d9cef9b487d1ca56f5b95ecd0fd7a
     Pseudo is Projector augmented-wave + core cor, Zval =  6.0
     Generated using &quot;atomic&quot; code by A. Dal Corso  v.6.3
     Shape of augmentation charge: PSQ
     Using radial grid of 1095 points,  4 beta functions with:
                l(1) =   0
                l(2) =   0
                l(3) =   1
                l(4) =   1
     Q(r) pseudized with 0 coefficients

     atomic species   valence    mass     pseudopotential
     Al                3.00    26.98000     Al( 1.00)
     O                 6.00    15.99000     O ( 1.00)

     Starting magnetic structure
     atomic species   magnetization
     Al              0.000
     O               0.500

      2 Sym. Ops. (no inversion) found

   Cartesian axes

     site n.     atom                  positions (alat units)
         1        Al     tau(   1) = (   0.4255715   0.0000000   0.0000000  )
         2        Al     tau(   2) = (   0.5744285   0.0000000   0.0000000  )
         3        Al     tau(   3) = (   0.5000000   0.0000000   0.0000000  )
         4        Al     tau(   4) = (   0.4503810   0.0000000   0.0350859  )
         5        Al     tau(   5) = (   0.5248095   0.0000000   0.0350859  )
         6        Al     tau(   6) = (   0.4751905   0.0000000   0.0175430  )
         7        Al     tau(   7) = (   0.5496190   0.0000000   0.0175430  )
         8        Al     tau(   8) = (   0.4503810   0.0151927   0.0087715  )
         9        Al     tau(   9) = (   0.5248095   0.0151927   0.0087715  )
        10        Al     tau(  10) = (   0.4751905   0.0151927   0.0438574  )
        11        Al     tau(  11) = (   0.5496190   0.0151927   0.0438574  )
        12        Al     tau(  12) = (   0.4255715   0.0151927   0.0263145  )
        13        Al     tau(  13) = (   0.5744285   0.0151927   0.0263145  )
        14        Al     tau(  14) = (   0.5000000   0.0151927   0.0263145  )
        15        O      tau(  15) = (   0.5829400   0.0151927   0.0438574  )
        16        O      tau(  16) = (   0.5893235   0.0151927   0.0438574  )

     number of k points=    49  Methfessel-Paxton smearing, width (Ry)=  0.0140
                       cart. coord. in units 2pi/alat
        k(    1) = (   0.0000000   0.0000000   0.0000000), wk =   0.0069444
        k(    2) = (   0.0000000   2.7425526   0.0000000), wk =   0.0138889
        k(    3) = (   0.0000000   5.4851052   0.0000000), wk =   0.0138889
        k(    4) = (   0.0000000   8.2276578   0.0000000), wk =   0.0138889
        k(    5) = (   0.0000000  10.9702104   0.0000000), wk =   0.0138889
        k(    6) = (   0.0000000  13.7127630   0.0000000), wk =   0.0138889
        k(    7) = (   0.0000000 -16.4553156   0.0000000), wk =   0.0069444
        k(    8) = (   0.0833333   0.0000000   0.0000000), wk =   0.0138889
        k(    9) = (   0.0833333   2.7425526   0.0000000), wk =   0.0277778
        k(   10) = (   0.0833333   5.4851052   0.0000000), wk =   0.0277778
        k(   11) = (   0.0833333   8.2276578   0.0000000), wk =   0.0277778
        k(   12) = (   0.0833333  10.9702104   0.0000000), wk =   0.0277778
        k(   13) = (   0.0833333  13.7127630   0.0000000), wk =   0.0277778
        k(   14) = (   0.0833333 -16.4553156   0.0000000), wk =   0.0138889
        k(   15) = (   0.1666667   0.0000000   0.0000000), wk =   0.0138889
        k(   16) = (   0.1666667   2.7425526   0.0000000), wk =   0.0277778
        k(   17) = (   0.1666667   5.4851052   0.0000000), wk =   0.0277778
        k(   18) = (   0.1666667   8.2276578   0.0000000), wk =   0.0277778
        k(   19) = (   0.1666667  10.9702104   0.0000000), wk =   0.0277778
        k(   20) = (   0.1666667  13.7127630   0.0000000), wk =   0.0277778
        k(   21) = (   0.1666667 -16.4553156   0.0000000), wk =   0.0138889
        k(   22) = (   0.2500000   0.0000000   0.0000000), wk =   0.0138889
        k(   23) = (   0.2500000   2.7425526   0.0000000), wk =   0.0277778
        k(   24) = (   0.2500000   5.4851052   0.0000000), wk =   0.0277778
        k(   25) = (   0.2500000   8.2276578   0.0000000), wk =   0.0277778
        k(   26) = (   0.2500000  10.9702104   0.0000000), wk =   0.0277778
        k(   27) = (   0.2500000  13.7127630   0.0000000), wk =   0.0277778
        k(   28) = (   0.2500000 -16.4553156   0.0000000), wk =   0.0138889
        k(   29) = (   0.3333333   0.0000000   0.0000000), wk =   0.0138889
        k(   30) = (   0.3333333   2.7425526   0.0000000), wk =   0.0277778
        k(   31) = (   0.3333333   5.4851052   0.0000000), wk =   0.0277778
        k(   32) = (   0.3333333   8.2276578   0.0000000), wk =   0.0277778
        k(   33) = (   0.3333333  10.9702104   0.0000000), wk =   0.0277778
        k(   34) = (   0.3333333  13.7127630   0.0000000), wk =   0.0277778
        k(   35) = (   0.3333333 -16.4553156   0.0000000), wk =   0.0138889
        k(   36) = (   0.4166667   0.0000000   0.0000000), wk =   0.0138889
        k(   37) = (   0.4166667   2.7425526   0.0000000), wk =   0.0277778
        k(   38) = (   0.4166667   5.4851052   0.0000000), wk =   0.0277778
        k(   39) = (   0.4166667   8.2276578   0.0000000), wk =   0.0277778
        k(   40) = (   0.4166667  10.9702104   0.0000000), wk =   0.0277778
        k(   41) = (   0.4166667  13.7127630   0.0000000), wk =   0.0277778
        k(   42) = (   0.4166667 -16.4553156   0.0000000), wk =   0.0138889
        k(   43) = (  -0.5000000   0.0000000   0.0000000), wk =   0.0069444
        k(   44) = (  -0.5000000   2.7425526   0.0000000), wk =   0.0138889
        k(   45) = (  -0.5000000   5.4851052   0.0000000), wk =   0.0138889
        k(   46) = (  -0.5000000   8.2276578   0.0000000), wk =   0.0138889
        k(   47) = (  -0.5000000  10.9702104   0.0000000), wk =   0.0138889
        k(   48) = (  -0.5000000  13.7127630   0.0000000), wk =   0.0138889
        k(   49) = (  -0.5000000 -16.4553156   0.0000000), wk =   0.0069444

     Initial potential from superposition of free atoms

     starting charge      53.9679, renormalised to      54.0000

     negative rho (up, down):  1.136E-03 3.769E-04
     Starting wfcs are   64 randomized atomic wfcs
     Checking if some PAW data can be deallocated...

     Self-consistent Calculation

     iteration #  1     ecut=    46.65 Ry     beta= 0.70
     Davidson diagonalization with overlap
     ethr =  1.00E-02,  avg # of iterations =  4.8

     negative rho (up, down):  1.029E-03 6.921E-04

     total energy              =    -616.35002379 Ry
     estimated scf accuracy    <      14.74720549 Ry

     total magnetization       =     0.76 Bohr mag/cell
     absolute magnetization    =     1.22 Bohr mag/cell

     iteration #  2     ecut=    46.65 Ry     beta= 0.70
     Davidson diagonalization with overlap
     c_bands:  2 eigenvalues not converged
     c_bands:  1 eigenvalues not converged
     c_bands:  3 eigenvalues not converged
     c_bands:  2 eigenvalues not converged
     c_bands:  3 eigenvalues not converged
     c_bands:  2 eigenvalues not converged
     c_bands:  4 eigenvalues not converged
     c_bands:  5 eigenvalues not converged
     c_bands:  2 eigenvalues not converged
     c_bands:  2 eigenvalues not converged
     c_bands:  3 eigenvalues not converged
     c_bands:  1 eigenvalues not converged
     c_bands:  3 eigenvalues not converged
     c_bands:  1 eigenvalues not converged
     c_bands:  4 eigenvalues not converged
     c_bands:  4 eigenvalues not converged
     c_bands:  1 eigenvalues not converged
     c_bands:  1 eigenvalues not converged
     c_bands:  5 eigenvalues not converged
     c_bands:  2 eigenvalues not converged
     c_bands:  3 eigenvalues not converged
     c_bands:  3 eigenvalues not converged
     c_bands:  2 eigenvalues not converged
     c_bands:  2 eigenvalues not converged
     c_bands:  4 eigenvalues not converged
     c_bands:  2 eigenvalues not converged
     c_bands:  2 eigenvalues not converged
     c_bands:  3 eigenvalues not converged
     c_bands:  4 eigenvalues not converged
     c_bands:  2 eigenvalues not converged
     c_bands:  1 eigenvalues not converged
     ethr =  1.00E-02,  avg # of iterations = 18.5

[...]

     iteration # 20     ecut=    46.65 Ry     beta= 0.70
     Davidson diagonalization with overlap
     c_bands:  1 eigenvalues not converged
     ethr =  2.38E-06,  avg # of iterations =  4.3

[...]

     total energy              =    -628.27037330 Ry
     estimated scf accuracy    <       0.00002882 Ry

[...]

     iteration # 32     ecut=    46.65 Ry     beta= 0.70
     Davidson diagonalization with overlap
     ethr =  6.89E-09,  avg # of iterations =  4.0

     negative rho (up, down):  1.151E-03 1.166E-03

     Magnetic moment per site  (integrated on atomic sphere of radius R)
     atom   1 (R=0.008)  charge=  0.3536  magn=  0.0004
     atom   2 (R=0.008)  charge=  0.4860  magn=  0.0382
     atom   3 (R=0.008)  charge=  0.3594  magn=  0.0022
     atom   4 (R=0.008)  charge=  0.3569  magn=  0.0002
     atom   5 (R=0.008)  charge=  0.3605  magn=  0.0026
     atom   6 (R=0.008)  charge=  0.3583  magn=  0.0023
     atom   7 (R=0.008)  charge=  0.3695  magn=  0.0056
     atom   8 (R=0.008)  charge=  0.3560  magn=  0.0014
     atom   9 (R=0.008)  charge=  0.3603  magn=  0.0016
     atom  10 (R=0.008)  charge=  0.3597  magn=  0.0004
     atom  11 (R=0.008)  charge=  0.3658  magn=  0.0037
     atom  12 (R=0.008)  charge=  0.3536  magn=  0.0003
     atom  13 (R=0.008)  charge=  0.4296  magn=  0.0055
     atom  14 (R=0.008)  charge=  0.3589  magn=  0.0002
     atom  15 (R=0.003)  charge=  0.7823  magn=  0.0047
     atom  16 (R=0.003)  charge=  0.8427  magn=  0.0024

     End of self-consistent calculation

 ------ SPIN UP ------------

          k = 0.0000 0.0000 0.0000 ( 48169 PWs)   bands (ev):

   -55.2779 -32.3797 -32.1589 -23.8824 -19.1701 -11.6957 -11.3147 -10.6646
    -9.7672  -8.6633  -7.4304  -6.1796  -5.9112  -5.7587  -5.6417  -5.3821
    -5.0938  -4.9494  -4.5731  -4.4020  -3.7064  -3.5460  -3.0787  -2.7057
    -1.9759  -1.3288  -1.2530  -0.8148  -0.6754  -0.5596   0.0015   0.0772

[...]

          k =-0.5000 0.0000 0.0000 ( 48150 PWs)   bands (ev):

[...]

 ------ SPIN DOWN ----------

[...]

          k = 0.4167******* 0.0000 ( 48472 PWs)   bands (ev):

[...]

          k =-0.5000******* 0.0000 ( 48456 PWs)   bands (ev):

   -55.2060 -32.4711 -32.2984 -23.4783 -18.4766  -7.2956  -7.2180  -7.0327
    -6.8462  -6.5195  -6.2130  -5.7559  -5.3305  -4.7654  -4.2469  -3.5867
    -3.0615  -2.6447  -2.5510  -2.1840  -1.8964  -1.6504  -1.5153  -1.5086
    -1.4523  -1.4227  -1.1445  -1.1141  -1.0910  -0.7665  -0.7546  -0.6707

     the Fermi energy is    -1.1910 ev

!    total energy              =    -628.27037338 Ry
     total all-electron energy =     -7091.963076 Ry
     estimated scf accuracy    <       0.00000093 Ry
     smearing contrib. (-TS)   =      -0.00020553 Ry
     internal energy E=F+TS    =    -628.27016785 Ry

     The total energy is F=E-TS. E is the sum of the following terms:
     one-electron contribution =  -13988.46791808 Ry
     hartree contribution      =    7002.12872194 Ry
     xc contribution           =     -52.98366772 Ry
     ewald contribution        =    6916.07751998 Ry
     one-center paw contrib.   =    -505.02482397 Ry

     total magnetization       =     0.57 Bohr mag/cell
     absolute magnetization    =     0.68 Bohr mag/cell

     convergence has been achieved in  32 iterations

     Writing all to output data dir ./alo.save/ :
     XML data file, charge density, pseudopotentials, collected wavefunctions

     General routines

     Parallel routines

   This run was terminated on:   5:15:14  24Jul2025

   JOB DONE.